print "1234"
region szpbox block -10.0 10.0 -10.0 10.0 -10.0 10.0
create_box 1 szpbox
log log2.lammps
units lj

create_atoms 1 single 0.0 0.0 0.0
create_atoms 1 single 1.0 0.0 0.0
mass 1 1.0

pair_style lj/cut 2.5
pair_coeff 1 1 1.0 1.0 2.5


fix szp all nve
dump 1 all xyz 1 dump.xyz

timestep 1.0
run 2