print "1234"
clear

region box block -10.0 10.0 -10.0 10.0 -10.0 10.0
create_box 1 box

create_atoms 1 single 0.0 0.0 0.0
create_atoms 1 single 1.0 0.0 0.0
mass 1 1.0
timestep 1.0

pair_style lj/cut 2.5
pair_coeff 1 1 1.0 1.0 0.5

fix 1 all nve

print "5678"
variable a equal ramp(0,100)
fix 2 all print 1 "$a"
run 100